100
120
99
97
97
96
94
94
93
93
89
89
89
88
87
85
85
84
84
82
82
78
77
76
75
73
73
71
71
67
66
63
63
62
62
61
61
59
59
57
57
57
57
55
53
53
52
51
51
50
49
49
48
48
48
47
46
46
46
44
44
41
38
37
37
37
37
35
35
34
34
32
32
31
31
30
29
28
27
27
26
26
26
25
25
24
21
19
18
15
13
13
12
12
12
10
10
5
4
3
2
1
